decision_x1=[0,2];
decision_x2=[0,2];
decision_x3=[0,2];
decision_x4=[0,2];
decision_x5=[0,2];
random_y1=[0,2];
constraint_x3_x1=[
0,1,1.6|
0,2,1.9|
1,0,2|
1,2,8.1|
2,0,5|
2,1,7.9|
];
constraint_x4_x1=[
0,1,1.7|
0,2,7.7|
1,0,6.4|
1,2,5.8|
2,0,7|
2,1,0.72|
];
constraint_x4_x3=[
0,1,7.1|
0,2,5.4|
1,0,7|
1,2,7|
2,0,0.3|
2,1,7.8|
];
constraint_x5_x2=[
0,1,6.8|
0,2,7.3|
1,0,2.1|
1,2,2.8|
2,0,2.8|
2,1,4.1|
];
constraint_x5_x4=[
0,1,5.1|
0,2,0.14|
1,0,0.36|
1,2,9.5|
2,0,6.1|
2,1,8.5|
];
constraint_x1_y1=[
0,0,7.3|
0,1,7.3|
0,2,5.8|
1,0,3.4|
1,1,8.1|
1,2,6.4|
2,0,9.1|
2,1,1.9|
2,2,8.4|
];
initial_distribution_y1=[0.53,0.17,0.3];
transition_y1=[
0.35,0.46,0.19|
0.34,0.49,0.17|
0.22,0.44,0.35|
];
